Version identifier: 20.1.0.0 | 2020-11-10 | 9bedb6d68
Tried aggregator 2 times.
MIP Presolve eliminated 1867 rows and 991 columns.
MIP Presolve modified 4694 coefficients.
Aggregator did 171 substitutions.
Reduced MIP has 2771 rows, 2153 columns, and 9094 nonzeros.
Reduced MIP has 424 binaries, 1729 generals, 0 SOSs, and 0 indicators.
Presolve time = 0.03 sec. (10.85 ticks)
Found incumbent of value 2764.000000 after 0.06 sec. (29.50 ticks)
Probing fixed 60 vars, tightened 660 bounds.
Probing time = 0.00 sec. (2.06 ticks)
Tried aggregator 2 times.
Detecting symmetries...
MIP Presolve eliminated 1212 rows and 150 columns.
MIP Presolve modified 257 coefficients.
Aggregator did 54 substitutions.
Reduced MIP has 1505 rows, 1949 columns, and 4892 nonzeros.
Reduced MIP has 704 binaries, 1245 generals, 0 SOSs, and 0 indicators.
Presolve time = 0.02 sec. (8.13 ticks)
Probing time = 0.00 sec. (0.49 ticks)
Clique table members: 125.
MIP emphasis: balance optimality and feasibility.
MIP search method: dynamic search.
Parallel mode: deterministic, using up to 24 threads.
Root relaxation solution time = 0.01 sec. (3.46 ticks)

        Nodes                                         Cuts/
   Node  Left     Objective  IInf  Best Integer    Best Bound    ItCnt     Gap

*     0+    0                         2764.0000        0.0000           100.00%
      0     0        0.0000    72     2764.0000        0.0000      352  100.00%
*     0+    0                           11.0000        0.0000           100.00%
      0     0        0.0000   153       11.0000     Cuts: 120      516  100.00%
*     0+    0                            8.0000        0.0000           100.00%
      0     0        0.0000    81        8.0000     Cuts: 108      662   50.00%
      0     0        0.0000    87        8.0000      Cuts: 47      737   50.00%
*     0+    0                            7.0000        4.0000            42.86%
      0     0        cutoff              7.0000        7.0000      737    0.00%
Elapsed time = 0.85 sec. (172.71 ticks, tree = 0.01 MB, solutions = 4)

Cover cuts applied:  3
Implied bound cuts applied:  42
Flow cuts applied:  2
Mixed integer rounding cuts applied:  16
Zero-half cuts applied:  83
Lift and project cuts applied:  11
Gomory fractional cuts applied:  25

Root node processing (before b&c):
  Real time             =    0.85 sec. (172.91 ticks)
Parallel b&c, 24 threads:
  Real time             =    0.00 sec. (0.00 ticks)
  Sync time (average)   =    0.00 sec.
  Wait time (average)   =    0.00 sec.
                          ------------
Total (root+branch&cut) =    0.85 sec. (172.91 ticks)

Solution status = Optimal
Solution LB = 7
Solution UB = 7
Runtime = 0.856254 seconds
	Command being timed: "/home/min/git_repos/CS598MEBProject/CNT-ILP/build/cnt -s 2 ./output/k8_n30/simC_c1_k8_n30_u1_s1_del02.input-right.cnp"
	User time (seconds): 11.79
	System time (seconds): 0.13
	Percent of CPU this job got: 1344%
	Elapsed (wall clock) time (h:mm:ss or m:ss): 0:00.88
	Average shared text size (kbytes): 0
	Average unshared data size (kbytes): 0
	Average stack size (kbytes): 0
	Average total size (kbytes): 0
	Maximum resident set size (kbytes): 129308
	Average resident set size (kbytes): 0
	Major (requiring I/O) page faults: 0
	Minor (reclaiming a frame) page faults: 30267
	Voluntary context switches: 6875
	Involuntary context switches: 1595
	Swaps: 0
	File system inputs: 0
	File system outputs: 16
	Socket messages sent: 0
	Socket messages received: 0
	Signals delivered: 0
	Page size (bytes): 4096
	Exit status: 0
